1 0 2 5 0 0 0 0 0 0
2 1 2 10 0 0 0
3 0 1 1 0 0 0 0 0 0
4 1 1 6 0 0 0 0 0 
5 0 2 25 0 0
6 1 2 30 0 0 0 0 0 0
7 0 3 10 0 0 0 
8 1 3 15 0 0 0 0
9 0 2 15 0 0 0 0 0 0
10 1 2 25 0 0 0 0 0 0
11 0 1 30 0
